N = 13;
H = 5;
T = 2;

avail = array3d(1..N, 1..H, 1..T, [10, 1, 8, 0, 2, 6, 10, 2, 10, 2, 6, 3, 2, 5, 3, 0, 7, 10, 10, 2, 5, 9, 3, 0, 4, 8, 9, 0, 10, 0, 2, 6, 7, 3, 0, 2, 8, 6, 2, 3, 6, 7, 7, 4, 7, 6, 4, 3, 9, 9, 5, 5, 3, 4, 8, 8, 8, 6, 2, 7, 4, 0, 9, 2, 9, 2, 7, 10, 6, 5, 5, 10, 5, 7, 3, 6, 5, 3, 5, 9, 6, 6, 3, 1, 1, 3, 3, 2, 3, 1, 3, 10, 6, 4, 5, 5, 6, 4, 0, 7, 7, 3, 2, 7, 7, 9, 3, 3, 0, 3, 8, 5, 6, 7, 8, 0, 9, 1, 0, 9, 9, 0, 10, 3, 5, 1, 6, 1, 4, 7]);

r = array2d(1..H, 1..T, [7, 3, 0, 3, 0, 7, 3, 3, 2, 3]);
